
n_res = 8;
rcap = [52, 46, 51, 52, 1641, 1743, 1623, 1743];
rtype = [1, 1, 1, 1, 2, 2, 2, 2];
n_tasks = 100;
modes =  [{1, 2, 3}, {4, 5, 6}, {7, 8, 9}, {10, 11, 12}, {13, 14, 15}, {16, 17, 18}, {19, 20, 21}, {22, 23, 24}, {25, 26, 27}, {28, 29, 30}, {31, 32, 33}, {34, 35, 36}, {37, 38, 39}, {40, 41, 42}, {43, 44, 45}, {46, 47, 48}, {49, 50, 51}, {52, 53, 54}, {55, 56, 57}, {58, 59, 60}, {61, 62, 63}, {64, 65, 66}, {67, 68, 69}, {70, 71, 72}, {73, 74, 75}, {76, 77, 78}, {79, 80, 81}, {82, 83, 84}, {85, 86, 87}, {88, 89, 90}, {91, 92, 93}, {94, 95, 96}, {97, 98, 99}, {100, 101, 102}, {103, 104, 105}, {106, 107, 108}, {109, 110, 111}, {112, 113, 114}, {115, 116, 117}, {118, 119, 120}, {121, 122, 123}, {124, 125, 126}, {127, 128, 129}, {130, 131, 132}, {133, 134, 135}, {136, 137, 138}, {139, 140, 141}, {142, 143, 144}, {145, 146, 147}, {148, 149, 150}, {151, 152, 153}, {154, 155, 156}, {157, 158, 159}, {160, 161, 162}, {163, 164, 165}, {166, 167, 168}, {169, 170, 171}, {172, 173, 174}, {175, 176, 177}, {178, 179, 180}, {181, 182, 183}, {184, 185, 186}, {187, 188, 189}, {190, 191, 192}, {193, 194, 195}, {196, 197, 198}, {199, 200, 201}, {202, 203, 204}, {205, 206, 207}, {208, 209, 210}, {211, 212, 213}, {214, 215, 216}, {217, 218, 219}, {220, 221, 222}, {223, 224, 225}, {226, 227, 228}, {229, 230, 231}, {232, 233, 234}, {235, 236, 237}, {238, 239, 240}, {241, 242, 243}, {244, 245, 246}, {247, 248, 249}, {250, 251, 252}, {253, 254, 255}, {256, 257, 258}, {259, 260, 261}, {262, 263, 264}, {265, 266, 267}, {268, 269, 270}, {271, 272, 273}, {274, 275, 276}, {277, 278, 279}, {280, 281, 282}, {283, 284, 285}, {286, 287, 288}, {289, 290, 291}, {292, 293, 294}, {295, 296, 297}, {298, 299, 300}];
succ =  [{100, 98, 96, 67, 65, 58, 57, 55, 53, 50, 37, 36, 30, 20, 19, 17}, {99, 73, 72, 68, 67, 66, 65, 62, 58, 57, 54, 52, 51, 50, 48, 43, 14}, {98, 96, 67, 63, 59, 58, 57, 55, 50, 49, 29, 22, 17}, {99, 96, 71, 65, 61, 60, 59, 57, 53, 51, 47, 31, 17}, {92, 72, 67, 65, 63, 60, 48, 47, 44, 41, 40, 29, 20}, {72, 71, 67, 66, 60, 57, 54, 49, 41, 37, 36, 35}, {98, 95, 93, 92, 90, 89, 73, 71, 66, 65, 64, 63, 62, 59, 58, 44, 41}, {99, 98, 97, 95, 86, 73, 68, 64, 63, 52, 49, 47, 43, 34}, {98, 92, 73, 71, 58, 55, 49, 36, 17}, {98, 96, 95, 72, 71, 68, 63, 57, 54, 53, 50, 49, 41}, {100, 98, 97, 92, 91, 89, 88, 87, 86, 82, 78, 70, 62, 61, 58, 57, 56, 54}, {99, 97, 96, 93, 90, 72, 67, 66, 65, 59, 49, 41}, {94, 92, 91, 90, 87, 86, 58, 56, 49, 47, 37}, {98, 97, 96, 95, 93, 92, 90, 89, 84, 82, 70, 63, 59, 41}, {99, 97, 95, 94, 93, 91, 90, 88, 87, 85, 83, 82, 81, 80, 79, 70, 69, 68, 67, 62}, {99, 98, 95, 90, 89, 88, 85, 83, 78, 66, 65, 63, 59, 47}, {91, 90, 87, 86, 81, 72, 66, 64, 62, 54, 41}, {98, 96, 95, 93, 89, 88, 85, 84, 83, 78, 71, 70, 69, 64, 62, 53}, {92, 91, 90, 87, 86, 82, 81, 64, 62, 54, 41}, {95, 93, 90, 88, 87, 86, 81, 78, 73, 71, 70, 62, 56, 52}, {91, 89, 86, 82, 81, 80, 78, 64, 62, 59, 57, 56, 54}, {97, 94, 93, 92, 90, 88, 87, 82, 81, 80, 79, 78, 75, 73, 65, 56}, {99, 98, 93, 89, 88, 87, 85, 81, 77, 75, 72, 67, 58, 54}, {99, 96, 94, 91, 89, 88, 82, 75, 65, 60, 56, 54}, {98, 88, 85, 84, 82, 77, 67, 62, 61, 57, 53}, {98, 88, 82, 79, 70, 62, 56, 53, 50}, {96, 95, 92, 91, 89, 88, 87, 84, 83, 81, 74, 71, 69, 48}, {97, 95, 93, 90, 89, 88, 84, 82, 69, 67, 45}, {97, 95, 93, 91, 89, 86, 85, 84, 83, 82, 80, 78, 74, 71, 70, 69, 64}, {93, 89, 86, 83, 82, 81, 66, 62, 41}, {95, 94, 92, 88, 83, 82, 79, 78, 75, 74, 68, 63, 56}, {99, 96, 94, 92, 91, 87, 85, 82, 81, 78, 76, 69, 65, 64}, {97, 93, 92, 91, 90, 86, 84, 81, 80, 78, 76, 72, 71, 62}, {94, 92, 91, 89, 88, 85, 84, 82, 81, 80, 79, 78, 69, 62}, {92, 89, 87, 85, 84, 83, 82, 78, 75, 74, 70, 63}, {93, 91, 88, 87, 86, 85, 84, 81, 79, 78, 75, 74, 69}, {95, 89, 88, 82, 79, 78, 76, 63, 62}, {96, 94, 93, 90, 87, 83, 82, 75, 56}, {95, 92, 86, 82, 76, 75, 74, 69, 60}, {97, 93, 91, 87, 84, 83, 79, 78, 76, 62}, {94, 88, 80, 79, 78, 75, 74, 56}, {96, 91, 86, 85, 84, 83, 82, 80, 79, 77, 75}, {96, 93, 92, 87, 82, 81, 76, 75, 74, 71}, {97, 96, 87, 82, 81, 78, 54}, {96, 92, 85, 83, 81, 80, 78, 75, 74}, {90, 86, 83, 81, 78, 77, 76, 75, 74}, {84, 82, 81, 80, 77, 75, 74, 70}, {90, 82, 80, 79, 78, 77, 76, 75}, {89, 84, 83, 81, 80, 76, 69}, {92, 90, 81, 80, 78, 77, 76}, {91, 89, 83, 80, 79, 76, 75}, {89, 80, 79, 76, 75, 74}, {91, 87, 86, 80, 74}, {84, 83, 76, 74}, {80, 79, 75, 74}, {85, 76, 69}, {90, 76, 74}, {84, 80, 79}, {87, 79, 74}, {81, 79, 78}, {93, 81, 79}, {75, 74}, {81, 80}, {79, 75}, {86, 74}, {75, 74}, {86, 78}, {84, 76}, {77}, {76}, {77}, {82}, {83}, {}, {}, {}, {}, {}, {}, {}, {}, {}, {}, {}, {}, {}, {}, {}, {}, {}, {}, {}, {}, {}, {}, {}, {}, {}, {}, {}];
n_opt = 300;
dur = [3, 8, 25, 5, 20, 24, 5, 8, 24, 2, 3, 28, 6, 9, 14, 5, 24, 28, 24, 25, 26, 14, 15, 25, 11, 25, 26, 5, 7, 22, 13, 16, 23, 6, 20, 21, 12, 14, 29, 9, 12, 18, 2, 6, 15, 10, 18, 19, 7, 11, 12, 1, 7, 11, 19, 20, 24, 1, 8, 10, 9, 23, 28, 4, 19, 21, 12, 21, 27, 1, 2, 30, 12, 17, 19, 10, 26, 30, 12, 13, 30, 9, 16, 30, 1, 6, 15, 19, 20, 21, 9, 21, 26, 17, 26, 29, 6, 8, 27, 2, 8, 17, 6, 19, 20, 2, 24, 28, 3, 14, 17, 6, 16, 28, 18, 19, 29, 3, 12, 14, 1, 10, 25, 10, 14, 30, 10, 22, 27, 7, 8, 15, 1, 3, 21, 17, 20, 24, 13, 27, 28, 16, 27, 29, 7, 12, 25, 4, 7, 28, 2, 23, 25, 10, 25, 29, 11, 12, 24, 10, 16, 17, 5, 28, 29, 7, 13, 15, 8, 12, 29, 1, 26, 28, 5, 11, 12, 1, 14, 22, 24, 28, 30, 18, 22, 28, 12, 19, 20, 2, 11, 15, 13, 28, 29, 4, 13, 15, 4, 17, 29, 11, 12, 21, 3, 19, 25, 5, 7, 28, 6, 17, 18, 2, 19, 23, 4, 7, 19, 6, 19, 24, 4, 5, 14, 8, 19, 24, 15, 23, 26, 10, 16, 18, 8, 19, 26, 1, 13, 14, 18, 20, 30, 12, 23, 28, 1, 4, 9, 18, 25, 26, 3, 15, 17, 1, 18, 20, 6, 19, 29, 2, 16, 28, 6, 16, 17, 4, 13, 16, 4, 13, 23, 23, 24, 27, 19, 20, 29, 9, 11, 12, 4, 6, 25, 1, 3, 6, 11, 12, 18, 5, 15, 25, 1, 12, 18, 5, 13, 18];
rreq = [|2, 2, 1, 5, 2, 1, 3, 3, 2, 4, 3, 3, 4, 3, 2, 4, 3, 3, 2, 1, 1, 3, 3, 3, 3, 2, 1, 3, 2, 1, 4, 3, 2, 4, 2, 2, 4, 3, 3, 5, 3, 3, 1, 1, 1, 5, 4, 4, 2, 2, 2, 4, 4, 4, 4, 3, 2, 4, 4, 3, 5, 5, 5, 3, 2, 2, 1, 1, 1, 4, 3, 2, 5, 3, 3, 3, 2, 1, 5, 4, 4, 4, 3, 2, 3, 3, 3, 3, 3, 3, 4, 3, 3, 2, 1, 1, 4, 3, 3, 1, 1, 1, 3, 1, 1, 4, 3, 2, 4, 4, 4, 3, 3, 3, 3, 3, 3, 3, 2, 1, 4, 4, 4, 3, 3, 1, 3, 3, 2, 2, 2, 2, 2, 2, 2, 3, 2, 2, 5, 3, 2, 1, 1, 1, 2, 2, 1, 4, 4, 4, 4, 4, 4, 5, 4, 4, 5, 3, 3, 3, 2, 1, 4, 4, 4, 1, 1, 1, 3, 2, 1, 3, 3, 3, 1, 1, 1, 3, 2, 2, 3, 2, 2, 2, 2, 2, 2, 2, 1, 5, 4, 4, 4, 3, 3, 1, 1, 1, 2, 2, 2, 3, 3, 3, 3, 3, 2, 4, 4, 2, 5, 3, 3, 3, 3, 3, 5, 5, 5, 2, 2, 2, 4, 3, 3, 2, 1, 1, 3, 2, 2, 4, 3, 2, 1, 1, 1, 3, 3, 1, 5, 4, 3, 4, 2, 2, 1, 1, 1, 3, 2, 2, 3, 2, 2, 5, 4, 2, 4, 4, 3, 3, 3, 3, 2, 2, 2, 3, 3, 3, 1, 1, 1, 4, 3, 2, 4, 4, 4, 3, 3, 3, 1, 1, 1, 4, 3, 3, 5, 5, 5, 2, 2, 2, 4, 2, 2, 4, 3, 3
 |3, 2, 2, 3, 3, 2, 3, 2, 2, 4, 3, 3, 5, 4, 3, 2, 2, 2, 2, 1, 1, 1, 1, 1, 3, 2, 2, 1, 1, 1, 3, 2, 1, 3, 2, 2, 5, 5, 5, 5, 5, 5, 3, 3, 3, 5, 4, 4, 3, 3, 3, 1, 1, 1, 3, 3, 3, 5, 4, 3, 4, 3, 3, 3, 3, 3, 3, 2, 1, 5, 4, 3, 2, 2, 2, 1, 1, 1, 4, 3, 3, 4, 2, 1, 4, 3, 3, 1, 1, 1, 3, 2, 2, 3, 3, 3, 3, 3, 3, 3, 3, 3, 4, 4, 4, 3, 3, 3, 5, 3, 3, 3, 2, 2, 5, 3, 3, 2, 2, 2, 5, 4, 4, 1, 1, 1, 3, 2, 2, 5, 5, 5, 2, 2, 2, 3, 2, 2, 5, 4, 3, 3, 3, 3, 3, 3, 3, 3, 2, 2, 4, 3, 3, 3, 2, 2, 1, 1, 1, 3, 2, 2, 3, 2, 2, 4, 3, 3, 5, 5, 5, 4, 4, 4, 1, 1, 1, 4, 4, 3, 3, 3, 3, 1, 1, 1, 1, 1, 1, 2, 2, 2, 3, 2, 1, 5, 4, 3, 3, 3, 2, 4, 3, 2, 4, 3, 1, 4, 4, 4, 3, 3, 3, 3, 2, 1, 4, 3, 3, 4, 3, 2, 5, 4, 4, 2, 2, 1, 3, 3, 3, 4, 4, 4, 4, 4, 4, 1, 1, 1, 5, 3, 2, 1, 1, 1, 3, 3, 3, 3, 2, 2, 1, 1, 1, 4, 4, 2, 3, 3, 2, 3, 3, 3, 5, 5, 5, 4, 4, 4, 2, 2, 2, 3, 1, 1, 3, 2, 1, 5, 4, 3, 3, 2, 2, 5, 5, 5, 4, 2, 2, 1, 1, 1, 2, 1, 1, 3, 1, 1
 |3, 3, 3, 5, 3, 3, 5, 3, 3, 3, 3, 3, 4, 4, 2, 3, 2, 1, 5, 4, 4, 4, 3, 2, 5, 3, 3, 4, 3, 1, 1, 1, 1, 1, 1, 1, 2, 2, 2, 3, 2, 2, 3, 3, 3, 2, 2, 1, 2, 1, 1, 4, 3, 1, 4, 3, 3, 4, 2, 2, 3, 3, 1, 1, 1, 1, 4, 4, 2, 4, 4, 4, 4, 3, 2, 4, 2, 2, 4, 4, 3, 3, 2, 2, 5, 5, 5, 2, 1, 1, 3, 3, 1, 2, 2, 2, 4, 3, 3, 2, 1, 1, 2, 1, 1, 3, 3, 3, 2, 1, 1, 4, 4, 3, 3, 2, 1, 2, 2, 2, 4, 2, 2, 3, 3, 3, 4, 3, 3, 5, 4, 3, 4, 4, 4, 2, 1, 1, 5, 5, 5, 4, 3, 3, 3, 3, 1, 2, 1, 1, 2, 1, 1, 5, 3, 2, 4, 4, 3, 3, 3, 3, 4, 4, 4, 4, 4, 4, 3, 1, 1, 3, 2, 1, 4, 4, 4, 1, 1, 1, 5, 5, 5, 3, 2, 2, 3, 3, 2, 2, 1, 1, 4, 2, 2, 4, 3, 3, 2, 1, 1, 5, 5, 5, 4, 4, 3, 4, 2, 2, 1, 1, 1, 4, 4, 3, 2, 2, 2, 5, 5, 5, 4, 3, 3, 5, 4, 3, 4, 4, 2, 1, 1, 1, 5, 4, 4, 2, 2, 2, 4, 3, 2, 5, 4, 3, 1, 1, 1, 1, 1, 1, 5, 4, 3, 2, 2, 2, 3, 2, 1, 5, 4, 4, 2, 1, 1, 5, 4, 2, 4, 4, 4, 1, 1, 1, 5, 4, 4, 5, 5, 5, 2, 1, 1, 2, 2, 1, 1, 1, 1, 3, 2, 2, 3, 3, 3, 1, 1, 1
 |4, 3, 2, 4, 3, 1, 5, 4, 4, 3, 2, 1, 3, 3, 3, 1, 1, 1, 4, 2, 1, 1, 1, 1, 3, 3, 2, 5, 4, 4, 3, 2, 2, 4, 4, 4, 4, 4, 4, 5, 3, 2, 4, 3, 3, 5, 3, 2, 4, 4, 4, 2, 2, 2, 4, 4, 4, 3, 2, 1, 3, 2, 1, 3, 3, 2, 4, 4, 4, 5, 2, 1, 5, 4, 3, 4, 3, 3, 3, 2, 1, 2, 2, 2, 5, 3, 2, 4, 3, 2, 3, 2, 2, 3, 3, 2, 4, 4, 4, 5, 2, 2, 5, 2, 2, 2, 2, 2, 2, 1, 1, 1, 1, 1, 3, 3, 3, 3, 2, 1, 3, 2, 2, 4, 3, 3, 2, 2, 2, 5, 4, 3, 3, 3, 3, 4, 2, 1, 2, 2, 2, 3, 2, 2, 4, 2, 2, 4, 3, 3, 1, 1, 1, 4, 3, 3, 2, 2, 2, 4, 3, 3, 3, 2, 1, 1, 1, 1, 4, 4, 4, 5, 4, 4, 4, 4, 2, 5, 3, 3, 5, 2, 2, 1, 1, 1, 3, 3, 2, 5, 5, 5, 4, 4, 4, 5, 5, 5, 4, 3, 1, 4, 3, 3, 5, 4, 4, 4, 2, 2, 4, 3, 2, 5, 4, 4, 1, 1, 1, 3, 2, 2, 5, 4, 4, 4, 3, 3, 4, 4, 4, 2, 1, 1, 2, 1, 1, 3, 3, 2, 1, 1, 1, 1, 1, 1, 5, 4, 3, 3, 3, 3, 1, 1, 1, 5, 4, 3, 3, 3, 3, 4, 4, 3, 3, 3, 2, 1, 1, 1, 4, 4, 4, 3, 2, 2, 5, 3, 2, 4, 4, 4, 3, 3, 2, 3, 3, 3, 1, 1, 1, 2, 2, 2, 5, 5, 5, 2, 2, 1
 |25, 17, 13, 15, 10, 8, 26, 18, 8, 5, 3, 3, 9, 7, 4, 15, 11, 6, 17, 15, 12, 26, 21, 16, 15, 15, 13, 12, 10, 8, 16, 11, 4, 22, 14, 13, 9, 9, 6, 28, 25, 16, 10, 9, 9, 30, 13, 6, 4, 2, 2, 22, 20, 20, 26, 23, 21, 27, 27, 27, 9, 5, 4, 10, 10, 10, 6, 3, 3, 18, 15, 12, 22, 19, 18, 10, 7, 6, 21, 14, 12, 27, 20, 15, 9, 7, 4, 19, 18, 16, 24, 24, 24, 15, 12, 9, 14, 10, 7, 24, 23, 21, 15, 14, 12, 22, 17, 11, 19, 17, 14, 5, 4, 3, 17, 17, 15, 19, 17, 15, 21, 14, 9, 8, 7, 4, 21, 12, 7, 6, 4, 3, 24, 21, 20, 24, 13, 6, 13, 13, 12, 29, 25, 21, 29, 22, 16, 11, 9, 4, 8, 6, 6, 15, 7, 2, 18, 13, 10, 27, 21, 17, 19, 18, 18, 16, 12, 10, 19, 19, 18, 18, 15, 9, 6, 4, 1, 18, 15, 8, 3, 2, 2, 21, 18, 17, 14, 9, 8, 30, 29, 28, 21, 18, 18, 8, 7, 6, 16, 8, 2, 19, 15, 5, 25, 16, 10, 21, 21, 17, 15, 11, 10, 23, 13, 12, 22, 11, 5, 21, 17, 15, 23, 18, 13, 11, 10, 9, 23, 18, 11, 11, 8, 6, 28, 24, 22, 20, 20, 19, 29, 24, 16, 21, 20, 13, 29, 23, 15, 19, 18, 15, 12, 10, 10, 23, 16, 4, 28, 23, 22, 21, 14, 9, 23, 22, 18, 16, 16, 11, 12, 12, 12, 13, 13, 8, 30, 24, 18, 8, 7, 3, 20, 16, 11, 16, 14, 14, 17, 14, 11, 10, 9, 6, 27, 27, 25, 24, 23, 23
 |21, 12, 11, 15, 15, 13, 20, 10, 7, 25, 11, 4, 8, 6, 4, 23, 21, 20, 18, 16, 12, 24, 16, 11, 22, 19, 4, 19, 19, 19, 9, 8, 8, 26, 24, 20, 9, 8, 8, 18, 18, 16, 26, 10, 5, 13, 8, 6, 18, 16, 10, 28, 19, 13, 23, 21, 18, 22, 18, 14, 19, 14, 14, 25, 25, 20, 14, 9, 9, 14, 11, 9, 26, 16, 7, 7, 5, 5, 29, 27, 27, 18, 15, 13, 20, 17, 16, 18, 16, 12, 23, 20, 13, 9, 8, 7, 18, 14, 8, 27, 24, 18, 6, 5, 5, 27, 17, 6, 13, 12, 10, 29, 26, 24, 18, 9, 7, 25, 22, 18, 16, 9, 9, 1, 1, 1, 26, 11, 6, 18, 14, 14, 24, 16, 11, 26, 13, 7, 26, 22, 20, 10, 10, 8, 22, 18, 15, 26, 21, 15, 22, 16, 11, 18, 10, 7, 29, 29, 29, 17, 12, 5, 29, 23, 14, 19, 18, 18, 27, 16, 10, 24, 24, 22, 26, 26, 26, 16, 15, 12, 28, 25, 20, 14, 14, 14, 15, 14, 10, 26, 25, 24, 16, 16, 13, 15, 14, 14, 6, 5, 4, 27, 18, 13, 14, 12, 5, 10, 9, 4, 12, 11, 11, 20, 19, 15, 17, 16, 15, 24, 20, 20, 20, 17, 11, 26, 24, 24, 7, 7, 7, 13, 12, 10, 18, 12, 9, 9, 8, 6, 28, 28, 27, 25, 22, 15, 20, 20, 16, 9, 8, 5, 12, 11, 9, 12, 9, 3, 12, 11, 10, 24, 21, 17, 20, 11, 9, 26, 26, 22, 26, 26, 23, 24, 19, 12, 15, 14, 12, 17, 16, 15, 23, 20, 18, 22, 10, 3, 10, 6, 4, 13, 12, 11, 26, 23, 23, 14, 14, 12
 |18, 12, 9, 14, 10, 8, 16, 16, 13, 21, 19, 16, 20, 20, 20, 22, 18, 11, 21, 17, 10, 18, 16, 12, 22, 17, 8, 6, 6, 3, 21, 16, 10, 19, 18, 15, 16, 10, 8, 24, 18, 11, 2, 2, 2, 22, 20, 18, 12, 10, 6, 19, 16, 8, 23, 21, 21, 4, 4, 3, 19, 18, 15, 6, 5, 3, 25, 23, 19, 20, 15, 14, 18, 18, 18, 19, 11, 5, 25, 22, 19, 15, 10, 7, 21, 19, 17, 23, 15, 5, 12, 7, 5, 18, 17, 7, 28, 25, 20, 18, 11, 10, 16, 14, 12, 22, 21, 16, 18, 17, 16, 4, 3, 2, 17, 15, 14, 9, 9, 2, 9, 9, 7, 27, 26, 26, 16, 14, 13, 12, 8, 6, 13, 11, 8, 16, 10, 9, 9, 7, 4, 20, 16, 9, 23, 16, 10, 12, 10, 1, 25, 20, 13, 20, 13, 4, 27, 27, 27, 17, 11, 5, 1, 1, 1, 12, 11, 9, 20, 16, 10, 20, 17, 14, 25, 20, 12, 18, 15, 6, 22, 21, 21, 17, 15, 14, 23, 15, 12, 7, 7, 7, 29, 23, 15, 24, 23, 23, 29, 25, 25, 6, 5, 3, 8, 7, 7, 11, 11, 9, 21, 14, 10, 6, 5, 3, 27, 23, 13, 20, 16, 15, 19, 19, 16, 20, 18, 17, 19, 13, 10, 17, 14, 13, 23, 13, 12, 20, 10, 2, 20, 15, 13, 16, 13, 7, 20, 13, 7, 25, 22, 19, 16, 16, 12, 20, 18, 16, 27, 26, 23, 24, 24, 22, 12, 9, 9, 15, 8, 4, 18, 15, 14, 24, 19, 17, 21, 13, 5, 9, 6, 5, 26, 13, 12, 23, 16, 13, 19, 10, 6, 15, 14, 13, 19, 14, 6, 19, 19, 18
 |15, 6, 5, 22, 19, 19, 15, 11, 3, 29, 22, 19, 22, 20, 19, 26, 17, 11, 26, 22, 20, 19, 17, 13, 18, 15, 8, 18, 15, 3, 1, 1, 1, 17, 7, 4, 27, 26, 26, 25, 22, 17, 20, 11, 4, 15, 11, 6, 16, 10, 5, 30, 28, 27, 18, 11, 4, 28, 22, 20, 20, 14, 10, 19, 16, 15, 21, 10, 8, 22, 18, 18, 19, 18, 16, 14, 11, 10, 19, 17, 9, 12, 10, 8, 7, 6, 5, 12, 9, 6, 18, 14, 6, 24, 22, 20, 15, 12, 12, 22, 17, 11, 26, 18, 12, 16, 13, 8, 30, 21, 12, 17, 14, 10, 25, 25, 23, 30, 23, 18, 21, 12, 9, 11, 8, 5, 26, 18, 14, 26, 21, 16, 14, 13, 12, 10, 10, 4, 19, 15, 10, 20, 12, 6, 28, 28, 27, 10, 9, 7, 21, 20, 18, 16, 14, 6, 13, 8, 3, 8, 6, 5, 14, 14, 13, 8, 4, 4, 15, 12, 6, 23, 19, 19, 26, 14, 5, 25, 18, 9, 20, 18, 18, 24, 18, 10, 20, 20, 19, 27, 20, 11, 9, 8, 5, 19, 18, 9, 17, 17, 16, 25, 17, 15, 26, 25, 24, 16, 14, 11, 13, 8, 6, 19, 15, 5, 14, 14, 9, 20, 17, 16, 20, 13, 9, 27, 22, 20, 24, 23, 20, 29, 28, 28, 28, 28, 28, 14, 13, 7, 18, 11, 7, 24, 23, 22, 16, 14, 6, 10, 7, 3, 20, 14, 13, 27, 24, 21, 13, 9, 4, 23, 15, 14, 19, 17, 17, 21, 16, 12, 24, 17, 14, 21, 18, 15, 19, 16, 11, 7, 6, 4, 28, 25, 20, 11, 6, 1, 5, 4, 4, 26, 16, 11, 21, 16, 11, 18, 16, 14|];